db/data/1668817760245633101224987127422110825619.z3.out
sat
-------------------
5.920211256
